c File: instances/40_0.45_2.col
c
c Description: Random graph of size 40 vertices and P(0.44999999999999996) of edges between any two vertices.
p col 40 780
e 1 2
e 1 5
e 1 6
e 1 7
e 1 9
e 1 11
e 1 13
e 1 14
e 1 21
e 1 22
e 1 24
e 1 25
e 1 26
e 1 27
e 1 30
e 1 32
e 1 33
e 1 37
e 1 39
e 1 40
e 2 4
e 2 7
e 2 8
e 2 9
e 2 11
e 2 12
e 2 13
e 2 19
e 2 22
e 2 23
e 2 24
e 2 26
e 2 28
e 2 30
e 2 32
e 2 34
e 2 35
e 2 36
e 2 37
e 2 39
e 3 7
e 3 8
e 3 9
e 3 12
e 3 14
e 3 15
e 3 16
e 3 18
e 3 22
e 3 25
e 3 28
e 3 30
e 3 31
e 3 33
e 3 35
e 3 37
e 3 38
e 3 39
e 3 40
e 4 6
e 4 7
e 4 8
e 4 9
e 4 10
e 4 11
e 4 13
e 4 15
e 4 16
e 4 18
e 4 19
e 4 21
e 4 22
e 4 25
e 4 26
e 4 28
e 4 32
e 4 34
e 4 39
e 4 40
e 5 7
e 5 12
e 5 13
e 5 14
e 5 17
e 5 18
e 5 20
e 5 21
e 5 25
e 5 28
e 5 29
e 5 32
e 5 33
e 5 34
e 5 35
e 5 36
e 5 37
e 5 38
e 5 39
e 5 40
e 6 10
e 6 12
e 6 13
e 6 14
e 6 15
e 6 19
e 6 20
e 6 22
e 6 25
e 6 26
e 6 27
e 6 28
e 6 30
e 6 33
e 6 34
e 6 35
e 6 36
e 6 37
e 6 39
e 6 40
e 7 8
e 7 9
e 7 10
e 7 13
e 7 14
e 7 15
e 7 16
e 7 25
e 7 31
e 7 32
e 7 33
e 7 35
e 7 38
e 7 40
e 8 10
e 8 12
e 8 13
e 8 14
e 8 15
e 8 24
e 8 26
e 8 29
e 8 30
e 8 31
e 8 33
e 8 36
e 8 40
e 9 12
e 9 13
e 9 15
e 9 19
e 9 20
e 9 25
e 9 26
e 9 27
e 9 32
e 9 33
e 9 34
e 9 36
e 9 37
e 9 38
e 10 11
e 10 14
e 10 16
e 10 18
e 10 19
e 10 22
e 10 23
e 10 25
e 10 30
e 10 36
e 10 39
e 10 40
e 11 17
e 11 19
e 11 20
e 11 21
e 11 23
e 11 25
e 11 27
e 11 31
e 11 32
e 11 33
e 11 38
e 11 40
e 12 16
e 12 18
e 12 19
e 12 22
e 12 24
e 12 29
e 12 30
e 12 32
e 12 34
e 12 35
e 12 36
e 12 37
e 12 38
e 12 39
e 12 40
e 13 15
e 13 17
e 13 18
e 13 20
e 13 22
e 13 23
e 13 32
e 13 33
e 13 35
e 13 36
e 13 37
e 13 38
e 14 15
e 14 16
e 14 17
e 14 22
e 14 23
e 14 27
e 14 31
e 14 32
e 14 33
e 14 36
e 14 38
e 14 39
e 15 20
e 15 21
e 15 24
e 15 25
e 15 26
e 15 27
e 15 29
e 15 30
e 15 32
e 15 34
e 15 37
e 16 17
e 16 21
e 16 22
e 16 23
e 16 25
e 16 27
e 16 28
e 16 32
e 16 36
e 16 37
e 16 40
e 17 18
e 17 20
e 17 21
e 17 22
e 17 23
e 17 25
e 17 28
e 17 30
e 17 32
e 17 33
e 17 34
e 17 35
e 17 36
e 17 37
e 17 39
e 17 40
e 18 21
e 18 23
e 18 25
e 18 27
e 18 36
e 18 37
e 18 39
e 19 22
e 19 26
e 19 27
e 19 28
e 19 29
e 19 30
e 19 32
e 19 35
e 19 36
e 19 38
e 19 39
e 20 21
e 20 23
e 20 24
e 20 25
e 20 31
e 20 33
e 20 36
e 20 38
e 20 40
e 21 23
e 21 24
e 21 27
e 21 28
e 21 30
e 21 35
e 21 37
e 21 40
e 22 24
e 22 28
e 22 31
e 22 33
e 22 36
e 22 37
e 23 24
e 23 25
e 23 30
e 23 31
e 23 32
e 23 33
e 23 35
e 23 40
e 24 30
e 24 31
e 24 33
e 24 34
e 24 35
e 24 36
e 24 37
e 25 27
e 25 29
e 25 31
e 25 33
e 25 35
e 25 38
e 26 27
e 26 28
e 26 32
e 26 35
e 26 36
e 26 37
e 26 38
e 27 29
e 27 30
e 27 31
e 27 32
e 27 35
e 27 36
e 27 37
e 27 38
e 27 39
e 28 30
e 28 31
e 28 38
e 28 39
e 29 34
e 29 35
e 29 37
e 29 39
e 30 32
e 30 33
e 30 34
e 30 38
e 30 40
e 31 32
e 31 37
e 31 38
e 31 39
e 32 35
e 32 37
e 32 39
e 33 35
e 33 39
e 34 38
e 36 37
e 36 38
e 36 39
e 36 40
e 37 40
e 38 39
e 39 40